% Data file generated from RandomInstances/16_0.80_2.col DIMACS file
size = 16;

chi = 10;

adjacency = [|0,0,1,1,1,1,0,1,1,1,1,1,1,1,0,1,
|0,0,1,1,1,1,1,1,1,1,1,1,1,1,1,1,
|1,1,0,1,1,1,1,1,1,1,1,1,1,1,1,0,
|1,1,1,0,1,0,1,1,1,0,1,1,1,0,1,1,
|1,1,1,1,0,1,1,1,1,1,0,1,1,1,1,1,
|1,1,1,0,1,0,1,1,1,1,1,1,1,0,1,1,
|0,1,1,1,1,1,0,1,1,1,1,1,1,1,1,1,
|1,1,1,1,1,1,1,0,1,1,1,1,1,1,1,1,
|1,1,1,1,1,1,1,1,0,1,1,0,1,1,1,1,
|1,1,1,0,1,1,1,1,1,0,1,1,1,1,1,1,
|1,1,1,1,0,1,1,1,1,1,0,1,1,1,1,0,
|1,1,1,1,1,1,1,1,0,1,1,0,1,0,1,1,
|1,1,1,1,1,1,1,1,1,1,1,1,0,1,1,1,
|1,1,1,0,1,0,1,1,1,1,1,0,1,0,1,1,
|0,1,1,1,1,1,1,1,1,1,1,1,1,1,0,0,
|1,1,0,1,1,1,1,1,1,1,0,1,1,1,0,0,
|];